p cnf 10 50
6 -9 8 0
-4 6 2 0
8 -5 2 0
-6 8 -7 0
7 -2 -3 0
-9 -3 2 0
-8 -6 10 0
-4 9 8 0
5 7 6 0
9 -1 -2 0
4 -2 -3 0
6 -2 -10 0
1 -9 -8 0
5 -1 -2 0
8 2 9 0
-4 8 -9 0
-6 -7 -8 0
2 -6 -1 0
10 7 -6 0
-7 -1 3 0
4 -7 8 0
5 7 -8 0
-4 5 -7 0
9 6 -2 0
4 5 -10 0
-6 -2 -1 0
2 3 1 0
6 -5 -8 0
-3 7 -5 0
-5 1 2 0
-1 -4 8 0
-5 8 3 0
2 -6 9 0
-3 8 1 0
-5 2 8 0
-1 8 -7 0
-9 4 3 0
-7 9 -8 0
-6 -10 8 0
-10 -1 9 0
-3 5 7 0
-10 -6 8 0
-6 5 8 0
7 6 4 0
-8 -5 2 0
-5 -8 4 0
-4 -7 8 0
-7 -5 1 0
3 -4 -6 0
-1 -8 -10 0